3 3 2
25 0 5 2 106 0 43 1 176 2 20 0 137 2 65 1 44 2 139 1 16 0 68 1 10 0 166 1 180 2 197 0 77 2 139 0 130 1 154 0 97 2 135 1 146 0 146 1 7 2 20 
25 0 5 1 159 2 133 0 36 2 189 1 190 0 19 1 49 2 57 1 44 0 15 2 89 1 6 2 90 0 40 1 197 2 65 1 25 2 6 0 85 2 119 1 198 2 81 0 96 1 138 
25 0 124 2 162 1 171 2 112 0 19 2 123 0 36 2 44 0 78 2 196 0 140 1 65 0 74 1 189 0 6 2 6 0 188 2 132 0 42 1 84 2 104 1 156 0 142 1 11 0 35 

-------------
